(declare-datatype
  pair (par (a b) ((pair2 (proj1-pair a) (proj2-pair b)))))
(declare-datatype
  list (par (a) ((nil) (cons (head a) (tail (list a))))))
(define-fun-rec
  select
  (par (a)
    (((x a) (y (list (pair a (list a))))) (list (pair a (list a)))))
  (match y
    ((nil (_ nil (pair a (list a))))
     ((cons z x2)
      (match z
        (((pair2 y2 ys) (cons (pair2 y2 (cons x ys)) (select x x2)))))))))
(define-fun-rec
  select2
  (par (a) (((x (list a))) (list (pair a (list a)))))
  (match x
    ((nil (_ nil (pair a (list a))))
     ((cons y xs) (cons (pair2 y xs) (select y (select2 xs)))))))
(define-fun-rec
  formula
  (par (a) (((x (list (pair a (list a))))) (list (list a))))
  (match x
    ((nil (_ nil (list a)))
     ((cons y z)
      (match y (((pair2 y2 ys) (cons (cons y2 ys) (formula z)))))))))
(define-fun-rec
  count
  (par (a) (((x a) (y (list a))) Int))
  (match y
    ((nil 0)
     ((cons z ys) (ite (= x z) (+ 1 (count x ys)) (count x ys))))))
(define-fun-rec
  all
  (par (a) (((p (=> a Bool)) (x (list a))) Bool))
  (match x
    ((nil true)
     ((cons y xs) (and (@ p y) (all p xs))))))
(prove
  (par (a)
    (forall ((xs (list a)) (z a))
      (all (lambda ((x (list a))) (= (count z xs) (count z x)))
        (formula (select2 xs))))))
